<?xml version="1.0" encoding="UTF-8"?><osil xmlns="os.optimizationservices.org" xmlns:xsi="http://www.w3.org/2001/XMLSchema-instance" xsi:schemaLocation="os.optimizationservices.org http://www.optimizationservices.org/schemas/2.0/OSiL.xsd"><instanceHeader><name>ex8_2_4b</name></instanceHeader><instanceData><variables numberOfVariables="61"><var name="x2" lb="6.21460809842219" ub="8.41183267575841"/><var name="x3" lb="6.21460809842219" ub="8.41183267575841"/><var name="x4" lb="6.21460809842219" ub="8.41183267575841"/><var name="x5" lb="1.6e2" ub="163.752806164"/><var name="x6" lb="1.6e2" ub="163.752806164"/><var name="x7" lb="1.6e2" ub="163.752806164"/><var name="x8" lb="1.6e2" ub="163.752806164"/><var name="x9" lb="1.6e2" ub="163.752806164"/><var name="x10" lb="1.6e2" ub="178.461227596"/><var name="x11" lb="1.6e2" ub="178.461227596"/><var name="x12" lb="1.6e2" ub="178.461227596"/><var name="x13" lb="1.6e2" ub="178.461227596"/><var name="x14" lb="1.6e2" ub="178.461227596"/><var name="x15" lb="1.6e2" ub="200"/><var name="x16" lb="1.6e2" ub="200"/><var name="x17" lb="1.6e2" ub="200"/><var name="x18" lb="1.6e2" ub="200"/><var name="x19" lb="1.6e2" ub="200"/><var name="x20" lb="1.6e2" ub="221.538772404"/><var name="x21" lb="1.6e2" ub="221.538772404"/><var name="x22" lb="1.6e2" ub="221.538772404"/><var name="x23" lb="1.6e2" ub="221.538772404"/><var name="x24" lb="1.6e2" ub="221.538772404"/><var name="x25" lb="1.6e2" ub="236.247193836"/><var name="x26" lb="1.6e2" ub="236.247193836"/><var name="x27" lb="1.6e2" ub="236.247193836"/><var name="x28" lb="1.6e2" ub="236.247193836"/><var name="x29" lb="1.6e2" ub="236.247193836"/><var name="x30" lb="60" ub="63.752806164"/><var name="x31" lb="60" ub="78.461227596"/><var name="x32" lb="60" ub="100"/><var name="x33" lb="60" ub="121.538772404"/><var name="x34" lb="60" ub="136.247193836"/><var name="x35" lb="60" ub="63.752806164"/><var name="x36" lb="60" ub="78.461227596"/><var name="x37" lb="60" ub="100"/><var name="x38" lb="60" ub="121.538772404"/><var name="x39" lb="60" ub="136.247193836"/><var name="x40" lb="60" ub="63.752806164"/><var name="x41" lb="60" ub="78.461227596"/><var name="x42" lb="60" ub="100"/><var name="x43" lb="60" ub="121.538772404"/><var name="x44" lb="60" ub="136.247193836"/><var name="x45" lb="60" ub="63.752806164"/><var name="x46" lb="60" ub="78.461227596"/><var name="x47" lb="60" ub="100"/><var name="x48" lb="60" ub="121.538772404"/><var name="x49" lb="60" ub="136.247193836"/><var name="x50" lb="60" ub="63.752806164"/><var name="x51" lb="60" ub="78.461227596"/><var name="x52" lb="60" ub="100"/><var name="x53" lb="60" ub="121.538772404"/><var name="x54" lb="60" ub="136.247193836"/><var name="x55" lb="4.82831" ub="7.1591"/><var name="x56" lb="4.42285" ub="6.7071"/><var name="x57" lb="6.22203373693604e-3" ub="6.40002391877942e-2"/><var name="x58" lb="1.55550843423401e-2" ub=".160000597969486"/><var name="x59" lb="6.22203373693604e-3" ub="6.40002391877942e-2"/><var name="x60" lb="1.9555254080048e-2" ub=".191999736805455"/><var name="x61" lb="4.88881352001201e-3" ub="4.79999342013636e-2"/><var name="x62" lb="4.88881352001201e-3" ub="4.79999342013636e-2"/></variables><objectives><obj maxOrMin="min" name="defObj_objvar" numberOfObjCoef="50"><coef idx="3">-1.54711033913716e-6</coef><coef idx="4">-2.19040316990534e-4</coef><coef idx="5">-2.64813118267794e-3</coef><coef idx="6">-2.19040316990534e-4</coef><coef idx="7">-1.54711033913716e-6</coef><coef idx="8">-2.19040316990533e-4</coef><coef idx="9">-3.10117896917886e-2</coef><coef idx="10">-.374923157717238</coef><coef idx="11">-3.10117896917886e-2</coef><coef idx="12">-2.19040316990532e-4</coef><coef idx="13">-2.64813118267793e-3</coef><coef idx="14">-.374923157717237</coef><coef idx="15">-4.5327075795914</coef><coef idx="16">-.374923157717237</coef><coef idx="17">-2.64813118267791e-3</coef><coef idx="18">-2.19040316990532e-4</coef><coef idx="19">-3.10117896917884e-2</coef><coef idx="20">-.374923157717236</coef><coef idx="21">-3.10117896917884e-2</coef><coef idx="22">-2.19040316990531e-4</coef><coef idx="23">-1.54711033913713e-6</coef><coef idx="24">-2.19040316990529e-4</coef><coef idx="25">-2.64813118267789e-3</coef><coef idx="26">-2.19040316990529e-4</coef><coef idx="27">-1.54711033913712e-6</coef><coef idx="28">-1.9690495225382e-6</coef><coef idx="29">-2.78778585260679e-4</coef><coef idx="30">-3.37034877795374e-3</coef><coef idx="31">-2.78778585260679e-4</coef><coef idx="32">-1.9690495225382e-6</coef><coef idx="33">-2.78778585260679e-4</coef><coef idx="34">-3.94695505168218e-2</coef><coef idx="35">-.477174928003758</coef><coef idx="36">-3.94695505168218e-2</coef><coef idx="37">-2.78778585260677e-4</coef><coef idx="38">-3.37034877795372e-3</coef><coef idx="39">-.477174928003756</coef><coef idx="40">-5.7689005558436</coef><coef idx="41">-.477174928003756</coef><coef idx="42">-3.37034877795371e-3</coef><coef idx="43">-2.78778585260677e-4</coef><coef idx="44">-3.94695505168216e-2</coef><coef idx="45">-.477174928003755</coef><coef idx="46">-3.94695505168216e-2</coef><coef idx="47">-2.78778585260676e-4</coef><coef idx="48">-1.96904952253816e-6</coef><coef idx="49">-2.78778585260674e-4</coef><coef idx="50">-3.37034877795367e-3</coef><coef idx="51">-2.78778585260674e-4</coef><coef idx="52">-1.96904952253816e-6</coef></obj></objectives><constraints numberOfConstraints="87"><con name="e2" lb=".693147180559945"/><con name="e3" lb="1.09861228866811"/><con name="e4" lb="1.38629436111989"/><con name="e5" lb="1.38629436111989"/><con name="e6" lb="1.79175946922805"/><con name="e7" lb="1.09861228866811"/><con name="e8" ub="8"/><con name="e9" ub="8"/><con name="e10" ub="8"/><con name="e11" ub="8"/><con name="e12" ub="8"/><con name="e13" ub="8"/><con name="e14" ub="8"/><con name="e15" ub="8"/><con name="e16" ub="8"/><con name="e17" ub="8"/><con name="e18" ub="8"/><con name="e19" ub="8"/><con name="e20" ub="8"/><con name="e21" ub="8"/><con name="e22" ub="8"/><con name="e23" ub="8"/><con name="e24" ub="8"/><con name="e25" ub="8"/><con name="e26" ub="8"/><con name="e27" ub="8"/><con name="e28" ub="8"/><con name="e29" ub="8"/><con name="e30" ub="8"/><con name="e31" ub="8"/><con name="e32" ub="8"/><con name="e33" ub="8"/><con name="e34" ub="8"/><con name="e35" ub="8"/><con name="e36" ub="8"/><con name="e37" ub="8"/><con name="e38" ub="8"/><con name="e39" ub="8"/><con name="e40" ub="8"/><con name="e41" ub="8"/><con name="e42" ub="8"/><con name="e43" ub="8"/><con name="e44" ub="8"/><con name="e45" ub="8"/><con name="e46" ub="8"/><con name="e47" ub="8"/><con name="e48" ub="8"/><con name="e49" ub="8"/><con name="e50" ub="8"/><con name="e51" ub="8"/><con name="e52" ub="8"/><con name="e53" ub="8"/><con name="e54" ub="8"/><con name="e55" ub="8"/><con name="e56" ub="8"/><con name="e57" ub="8"/><con name="e58" ub="8"/><con name="e59" ub="8"/><con name="e60" ub="8"/><con name="e61" ub="8"/><con name="e62" ub="8"/><con name="e63" ub="8"/><con name="e64" ub="8"/><con name="e65" ub="8"/><con name="e66" ub="8"/><con name="e67" ub="8"/><con name="e68" ub="8"/><con name="e69" ub="8"/><con name="e70" ub="8"/><con name="e71" ub="8"/><con name="e72" ub="8"/><con name="e73" ub="8"/><con name="e74" ub="8"/><con name="e75" ub="8"/><con name="e76" ub="8"/><con name="e77" ub="8"/><con name="e78" ub="8"/><con name="e79" ub="8"/><con name="e80" ub="8"/><con name="e81" ub="8"/><con name="e82" ub="8"/><con name="e83" lb="0" ub="0"/><con name="e84" lb="0" ub="0"/><con name="e85" lb="0" ub="0"/><con name="e86" lb="0" ub="0"/><con name="e87" lb="0" ub="0"/><con name="e88" lb="0" ub="0"/></constraints><linearConstraintCoefficients numberOfValues="18"><start><el mult="7" incr="2">0</el><el mult="75">12</el><el mult="6" incr="1">13</el></start><colIdx><el>0</el><el>53</el><el>1</el><el>53</el><el>2</el><el>53</el><el>0</el><el>54</el><el>1</el><el>54</el><el>2</el><el mult="7" incr="1">54</el></colIdx><value><el>1</el><el>-1</el><el>1</el><el>-1</el><el>1</el><el>-1</el><el>1</el><el>-1</el><el>1</el><el>-1</el><el>1</el><el>-1</el><el mult="6">1</el></value></linearConstraintCoefficients><quadraticCoefficients numberOfQuadraticTerms="150"><qTerm idx="6" idxOne="3" idxTwo="55" coef="1"/><qTerm idx="6" idxOne="28" idxTwo="58" coef="1"/><qTerm idx="7" idxOne="4" idxTwo="55" coef="1"/><qTerm idx="7" idxOne="29" idxTwo="58" coef="1"/><qTerm idx="8" idxOne="5" idxTwo="55" coef="1"/><qTerm idx="8" idxOne="30" idxTwo="58" coef="1"/><qTerm idx="9" idxOne="6" idxTwo="55" coef="1"/><qTerm idx="9" idxOne="31" idxTwo="58" coef="1"/><qTerm idx="10" idxOne="7" idxTwo="55" coef="1"/><qTerm idx="10" idxOne="32" idxTwo="58" coef="1"/><qTerm idx="11" idxOne="8" idxTwo="55" coef="1"/><qTerm idx="11" idxOne="33" idxTwo="58" coef="1"/><qTerm idx="12" idxOne="9" idxTwo="55" coef="1"/><qTerm idx="12" idxOne="34" idxTwo="58" coef="1"/><qTerm idx="13" idxOne="10" idxTwo="55" coef="1"/><qTerm idx="13" idxOne="35" idxTwo="58" coef="1"/><qTerm idx="14" idxOne="11" idxTwo="55" coef="1"/><qTerm idx="14" idxOne="36" idxTwo="58" coef="1"/><qTerm idx="15" idxOne="12" idxTwo="55" coef="1"/><qTerm idx="15" idxOne="37" idxTwo="58" coef="1"/><qTerm idx="16" idxOne="13" idxTwo="55" coef="1"/><qTerm idx="16" idxOne="38" idxTwo="58" coef="1"/><qTerm idx="17" idxOne="14" idxTwo="55" coef="1"/><qTerm idx="17" idxOne="39" idxTwo="58" coef="1"/><qTerm idx="18" idxOne="15" idxTwo="55" coef="1"/><qTerm idx="18" idxOne="40" idxTwo="58" coef="1"/><qTerm idx="19" idxOne="16" idxTwo="55" coef="1"/><qTerm idx="19" idxOne="41" idxTwo="58" coef="1"/><qTerm idx="20" idxOne="17" idxTwo="55" coef="1"/><qTerm idx="20" idxOne="42" idxTwo="58" coef="1"/><qTerm idx="21" idxOne="18" idxTwo="55" coef="1"/><qTerm idx="21" idxOne="43" idxTwo="58" coef="1"/><qTerm idx="22" idxOne="19" idxTwo="55" coef="1"/><qTerm idx="22" idxOne="44" idxTwo="58" coef="1"/><qTerm idx="23" idxOne="20" idxTwo="55" coef="1"/><qTerm idx="23" idxOne="45" idxTwo="58" coef="1"/><qTerm idx="24" idxOne="21" idxTwo="55" coef="1"/><qTerm idx="24" idxOne="46" idxTwo="58" coef="1"/><qTerm idx="25" idxOne="22" idxTwo="55" coef="1"/><qTerm idx="25" idxOne="47" idxTwo="58" coef="1"/><qTerm idx="26" idxOne="23" idxTwo="55" coef="1"/><qTerm idx="26" idxOne="48" idxTwo="58" coef="1"/><qTerm idx="27" idxOne="24" idxTwo="55" coef="1"/><qTerm idx="27" idxOne="49" idxTwo="58" coef="1"/><qTerm idx="28" idxOne="25" idxTwo="55" coef="1"/><qTerm idx="28" idxOne="50" idxTwo="58" coef="1"/><qTerm idx="29" idxOne="26" idxTwo="55" coef="1"/><qTerm idx="29" idxOne="51" idxTwo="58" coef="1"/><qTerm idx="30" idxOne="27" idxTwo="55" coef="1"/><qTerm idx="30" idxOne="52" idxTwo="58" coef="1"/><qTerm idx="31" idxOne="3" idxTwo="56" coef="1"/><qTerm idx="31" idxOne="28" idxTwo="59" coef="1"/><qTerm idx="32" idxOne="4" idxTwo="56" coef="1"/><qTerm idx="32" idxOne="29" idxTwo="59" coef="1"/><qTerm idx="33" idxOne="5" idxTwo="56" coef="1"/><qTerm idx="33" idxOne="30" idxTwo="59" coef="1"/><qTerm idx="34" idxOne="6" idxTwo="56" coef="1"/><qTerm idx="34" idxOne="31" idxTwo="59" coef="1"/><qTerm idx="35" idxOne="7" idxTwo="56" coef="1"/><qTerm idx="35" idxOne="32" idxTwo="59" coef="1"/><qTerm idx="36" idxOne="8" idxTwo="56" coef="1"/><qTerm idx="36" idxOne="33" idxTwo="59" coef="1"/><qTerm idx="37" idxOne="9" idxTwo="56" coef="1"/><qTerm idx="37" idxOne="34" idxTwo="59" coef="1"/><qTerm idx="38" idxOne="10" idxTwo="56" coef="1"/><qTerm idx="38" idxOne="35" idxTwo="59" coef="1"/><qTerm idx="39" idxOne="11" idxTwo="56" coef="1"/><qTerm idx="39" idxOne="36" idxTwo="59" coef="1"/><qTerm idx="40" idxOne="12" idxTwo="56" coef="1"/><qTerm idx="40" idxOne="37" idxTwo="59" coef="1"/><qTerm idx="41" idxOne="13" idxTwo="56" coef="1"/><qTerm idx="41" idxOne="38" idxTwo="59" coef="1"/><qTerm idx="42" idxOne="14" idxTwo="56" coef="1"/><qTerm idx="42" idxOne="39" idxTwo="59" coef="1"/><qTerm idx="43" idxOne="15" idxTwo="56" coef="1"/><qTerm idx="43" idxOne="40" idxTwo="59" coef="1"/><qTerm idx="44" idxOne="16" idxTwo="56" coef="1"/><qTerm idx="44" idxOne="41" idxTwo="59" coef="1"/><qTerm idx="45" idxOne="17" idxTwo="56" coef="1"/><qTerm idx="45" idxOne="42" idxTwo="59" coef="1"/><qTerm idx="46" idxOne="18" idxTwo="56" coef="1"/><qTerm idx="46" idxOne="43" idxTwo="59" coef="1"/><qTerm idx="47" idxOne="19" idxTwo="56" coef="1"/><qTerm idx="47" idxOne="44" idxTwo="59" coef="1"/><qTerm idx="48" idxOne="20" idxTwo="56" coef="1"/><qTerm idx="48" idxOne="45" idxTwo="59" coef="1"/><qTerm idx="49" idxOne="21" idxTwo="56" coef="1"/><qTerm idx="49" idxOne="46" idxTwo="59" coef="1"/><qTerm idx="50" idxOne="22" idxTwo="56" coef="1"/><qTerm idx="50" idxOne="47" idxTwo="59" coef="1"/><qTerm idx="51" idxOne="23" idxTwo="56" coef="1"/><qTerm idx="51" idxOne="48" idxTwo="59" coef="1"/><qTerm idx="52" idxOne="24" idxTwo="56" coef="1"/><qTerm idx="52" idxOne="49" idxTwo="59" coef="1"/><qTerm idx="53" idxOne="25" idxTwo="56" coef="1"/><qTerm idx="53" idxOne="50" idxTwo="59" coef="1"/><qTerm idx="54" idxOne="26" idxTwo="56" coef="1"/><qTerm idx="54" idxOne="51" idxTwo="59" coef="1"/><qTerm idx="55" idxOne="27" idxTwo="56" coef="1"/><qTerm idx="55" idxOne="52" idxTwo="59" coef="1"/><qTerm idx="56" idxOne="3" idxTwo="57" coef="1"/><qTerm idx="56" idxOne="28" idxTwo="60" coef="1"/><qTerm idx="57" idxOne="4" idxTwo="57" coef="1"/><qTerm idx="57" idxOne="29" idxTwo="60" coef="1"/><qTerm idx="58" idxOne="5" idxTwo="57" coef="1"/><qTerm idx="58" idxOne="30" idxTwo="60" coef="1"/><qTerm idx="59" idxOne="6" idxTwo="57" coef="1"/><qTerm idx="59" idxOne="31" idxTwo="60" coef="1"/><qTerm idx="60" idxOne="7" idxTwo="57" coef="1"/><qTerm idx="60" idxOne="32" idxTwo="60" coef="1"/><qTerm idx="61" idxOne="8" idxTwo="57" coef="1"/><qTerm idx="61" idxOne="33" idxTwo="60" coef="1"/><qTerm idx="62" idxOne="9" idxTwo="57" coef="1"/><qTerm idx="62" idxOne="34" idxTwo="60" coef="1"/><qTerm idx="63" idxOne="10" idxTwo="57" coef="1"/><qTerm idx="63" idxOne="35" idxTwo="60" coef="1"/><qTerm idx="64" idxOne="11" idxTwo="57" coef="1"/><qTerm idx="64" idxOne="36" idxTwo="60" coef="1"/><qTerm idx="65" idxOne="12" idxTwo="57" coef="1"/><qTerm idx="65" idxOne="37" idxTwo="60" coef="1"/><qTerm idx="66" idxOne="13" idxTwo="57" coef="1"/><qTerm idx="66" idxOne="38" idxTwo="60" coef="1"/><qTerm idx="67" idxOne="14" idxTwo="57" coef="1"/><qTerm idx="67" idxOne="39" idxTwo="60" coef="1"/><qTerm idx="68" idxOne="15" idxTwo="57" coef="1"/><qTerm idx="68" idxOne="40" idxTwo="60" coef="1"/><qTerm idx="69" idxOne="16" idxTwo="57" coef="1"/><qTerm idx="69" idxOne="41" idxTwo="60" coef="1"/><qTerm idx="70" idxOne="17" idxTwo="57" coef="1"/><qTerm idx="70" idxOne="42" idxTwo="60" coef="1"/><qTerm idx="71" idxOne="18" idxTwo="57" coef="1"/><qTerm idx="71" idxOne="43" idxTwo="60" coef="1"/><qTerm idx="72" idxOne="19" idxTwo="57" coef="1"/><qTerm idx="72" idxOne="44" idxTwo="60" coef="1"/><qTerm idx="73" idxOne="20" idxTwo="57" coef="1"/><qTerm idx="73" idxOne="45" idxTwo="60" coef="1"/><qTerm idx="74" idxOne="21" idxTwo="57" coef="1"/><qTerm idx="74" idxOne="46" idxTwo="60" coef="1"/><qTerm idx="75" idxOne="22" idxTwo="57" coef="1"/><qTerm idx="75" idxOne="47" idxTwo="60" coef="1"/><qTerm idx="76" idxOne="23" idxTwo="57" coef="1"/><qTerm idx="76" idxOne="48" idxTwo="60" coef="1"/><qTerm idx="77" idxOne="24" idxTwo="57" coef="1"/><qTerm idx="77" idxOne="49" idxTwo="60" coef="1"/><qTerm idx="78" idxOne="25" idxTwo="57" coef="1"/><qTerm idx="78" idxOne="50" idxTwo="60" coef="1"/><qTerm idx="79" idxOne="26" idxTwo="57" coef="1"/><qTerm idx="79" idxOne="51" idxTwo="60" coef="1"/><qTerm idx="80" idxOne="27" idxTwo="57" coef="1"/><qTerm idx="80" idxOne="52" idxTwo="60" coef="1"/></quadraticCoefficients><nonlinearExpressions numberOfNonlinearExpressions="7"><nl idx="-1"><product><sum><product><exp><variable idx="0" coef=".6"/></exp><number value="10"/></product><product><exp><variable idx="1" coef=".6"/></exp><number value="10"/></product><product><exp><variable idx="2" coef=".6"/></exp><number value="10"/></product></sum><number value=".3"/></product></nl><nl idx="81"><negate><exp><sum><number value="2.07944154167984"/><variable idx="53" coef="-1"/></sum></exp></negate></nl><nl idx="82"><negate><exp><sum><number value="2.99573227355399"/><variable idx="53" coef="-1"/></sum></exp></negate></nl><nl idx="83"><negate><exp><sum><number value="2.07944154167984"/><variable idx="53" coef="-1"/></sum></exp></negate></nl><nl idx="84"><negate><exp><sum><number value="2.77258872223978"/><variable idx="54" coef="-1"/></sum></exp></negate></nl><nl idx="85"><negate><exp><sum><number value="1.38629436111989"/><variable idx="54" coef="-1"/></sum></exp></negate></nl><nl idx="86"><negate><exp><sum><number value="1.38629436111989"/><variable idx="54" coef="-1"/></sum></exp></negate></nl></nonlinearExpressions></instanceData></osil>